c *********************************
c * Circuit generated by BenCGen
c *
c * CarrySaveAdder_150_150_150_150_151
c *
c * Ports with 1 gate(s): 2
c * Ports with 2 gate(s): 751
c * Total gates: 753
c *********************************
p cnf 1203 2557
1 753 0
-1 -753 0
1 -752 0
753 -752 0
-1 -753 752 0
752 -601 0
-752 601 0
1 151 -754 0
-1 151 754 0
1 -151 754 0
-1 -151 -754 0
754 301 -451 0
-754 301 451 0
754 -301 451 0
-754 -301 -451 0
301 -755 0
754 -755 0
-301 -754 755 0
151 -756 0
1 -756 0
-151 -1 756 0
-755 602 0
-756 602 0
755 756 -602 0
2 152 -757 0
-2 152 757 0
2 -152 757 0
-2 -152 -757 0
757 302 -452 0
-757 302 452 0
757 -302 452 0
-757 -302 -452 0
302 -758 0
757 -758 0
-302 -757 758 0
152 -759 0
2 -759 0
-152 -2 759 0
-758 603 0
-759 603 0
758 759 -603 0
3 153 -760 0
-3 153 760 0
3 -153 760 0
-3 -153 -760 0
760 303 -453 0
-760 303 453 0
760 -303 453 0
-760 -303 -453 0
303 -761 0
760 -761 0
-303 -760 761 0
153 -762 0
3 -762 0
-153 -3 762 0
-761 604 0
-762 604 0
761 762 -604 0
4 154 -763 0
-4 154 763 0
4 -154 763 0
-4 -154 -763 0
763 304 -454 0
-763 304 454 0
763 -304 454 0
-763 -304 -454 0
304 -764 0
763 -764 0
-304 -763 764 0
154 -765 0
4 -765 0
-154 -4 765 0
-764 605 0
-765 605 0
764 765 -605 0
5 155 -766 0
-5 155 766 0
5 -155 766 0
-5 -155 -766 0
766 305 -455 0
-766 305 455 0
766 -305 455 0
-766 -305 -455 0
305 -767 0
766 -767 0
-305 -766 767 0
155 -768 0
5 -768 0
-155 -5 768 0
-767 606 0
-768 606 0
767 768 -606 0
6 156 -769 0
-6 156 769 0
6 -156 769 0
-6 -156 -769 0
769 306 -456 0
-769 306 456 0
769 -306 456 0
-769 -306 -456 0
306 -770 0
769 -770 0
-306 -769 770 0
156 -771 0
6 -771 0
-156 -6 771 0
-770 607 0
-771 607 0
770 771 -607 0
7 157 -772 0
-7 157 772 0
7 -157 772 0
-7 -157 -772 0
772 307 -457 0
-772 307 457 0
772 -307 457 0
-772 -307 -457 0
307 -773 0
772 -773 0
-307 -772 773 0
157 -774 0
7 -774 0
-157 -7 774 0
-773 608 0
-774 608 0
773 774 -608 0
8 158 -775 0
-8 158 775 0
8 -158 775 0
-8 -158 -775 0
775 308 -458 0
-775 308 458 0
775 -308 458 0
-775 -308 -458 0
308 -776 0
775 -776 0
-308 -775 776 0
158 -777 0
8 -777 0
-158 -8 777 0
-776 609 0
-777 609 0
776 777 -609 0
9 159 -778 0
-9 159 778 0
9 -159 778 0
-9 -159 -778 0
778 309 -459 0
-778 309 459 0
778 -309 459 0
-778 -309 -459 0
309 -779 0
778 -779 0
-309 -778 779 0
159 -780 0
9 -780 0
-159 -9 780 0
-779 610 0
-780 610 0
779 780 -610 0
10 160 -781 0
-10 160 781 0
10 -160 781 0
-10 -160 -781 0
781 310 -460 0
-781 310 460 0
781 -310 460 0
-781 -310 -460 0
310 -782 0
781 -782 0
-310 -781 782 0
160 -783 0
10 -783 0
-160 -10 783 0
-782 611 0
-783 611 0
782 783 -611 0
11 161 -784 0
-11 161 784 0
11 -161 784 0
-11 -161 -784 0
784 311 -461 0
-784 311 461 0
784 -311 461 0
-784 -311 -461 0
311 -785 0
784 -785 0
-311 -784 785 0
161 -786 0
11 -786 0
-161 -11 786 0
-785 612 0
-786 612 0
785 786 -612 0
12 162 -787 0
-12 162 787 0
12 -162 787 0
-12 -162 -787 0
787 312 -462 0
-787 312 462 0
787 -312 462 0
-787 -312 -462 0
312 -788 0
787 -788 0
-312 -787 788 0
162 -789 0
12 -789 0
-162 -12 789 0
-788 613 0
-789 613 0
788 789 -613 0
13 163 -790 0
-13 163 790 0
13 -163 790 0
-13 -163 -790 0
790 313 -463 0
-790 313 463 0
790 -313 463 0
-790 -313 -463 0
313 -791 0
790 -791 0
-313 -790 791 0
163 -792 0
13 -792 0
-163 -13 792 0
-791 614 0
-792 614 0
791 792 -614 0
14 164 -793 0
-14 164 793 0
14 -164 793 0
-14 -164 -793 0
793 314 -464 0
-793 314 464 0
793 -314 464 0
-793 -314 -464 0
314 -794 0
793 -794 0
-314 -793 794 0
164 -795 0
14 -795 0
-164 -14 795 0
-794 615 0
-795 615 0
794 795 -615 0
15 165 -796 0
-15 165 796 0
15 -165 796 0
-15 -165 -796 0
796 315 -465 0
-796 315 465 0
796 -315 465 0
-796 -315 -465 0
315 -797 0
796 -797 0
-315 -796 797 0
165 -798 0
15 -798 0
-165 -15 798 0
-797 616 0
-798 616 0
797 798 -616 0
16 166 -799 0
-16 166 799 0
16 -166 799 0
-16 -166 -799 0
799 316 -466 0
-799 316 466 0
799 -316 466 0
-799 -316 -466 0
316 -800 0
799 -800 0
-316 -799 800 0
166 -801 0
16 -801 0
-166 -16 801 0
-800 617 0
-801 617 0
800 801 -617 0
17 167 -802 0
-17 167 802 0
17 -167 802 0
-17 -167 -802 0
802 317 -467 0
-802 317 467 0
802 -317 467 0
-802 -317 -467 0
317 -803 0
802 -803 0
-317 -802 803 0
167 -804 0
17 -804 0
-167 -17 804 0
-803 618 0
-804 618 0
803 804 -618 0
18 168 -805 0
-18 168 805 0
18 -168 805 0
-18 -168 -805 0
805 318 -468 0
-805 318 468 0
805 -318 468 0
-805 -318 -468 0
318 -806 0
805 -806 0
-318 -805 806 0
168 -807 0
18 -807 0
-168 -18 807 0
-806 619 0
-807 619 0
806 807 -619 0
19 169 -808 0
-19 169 808 0
19 -169 808 0
-19 -169 -808 0
808 319 -469 0
-808 319 469 0
808 -319 469 0
-808 -319 -469 0
319 -809 0
808 -809 0
-319 -808 809 0
169 -810 0
19 -810 0
-169 -19 810 0
-809 620 0
-810 620 0
809 810 -620 0
20 170 -811 0
-20 170 811 0
20 -170 811 0
-20 -170 -811 0
811 320 -470 0
-811 320 470 0
811 -320 470 0
-811 -320 -470 0
320 -812 0
811 -812 0
-320 -811 812 0
170 -813 0
20 -813 0
-170 -20 813 0
-812 621 0
-813 621 0
812 813 -621 0
21 171 -814 0
-21 171 814 0
21 -171 814 0
-21 -171 -814 0
814 321 -471 0
-814 321 471 0
814 -321 471 0
-814 -321 -471 0
321 -815 0
814 -815 0
-321 -814 815 0
171 -816 0
21 -816 0
-171 -21 816 0
-815 622 0
-816 622 0
815 816 -622 0
22 172 -817 0
-22 172 817 0
22 -172 817 0
-22 -172 -817 0
817 322 -472 0
-817 322 472 0
817 -322 472 0
-817 -322 -472 0
322 -818 0
817 -818 0
-322 -817 818 0
172 -819 0
22 -819 0
-172 -22 819 0
-818 623 0
-819 623 0
818 819 -623 0
23 173 -820 0
-23 173 820 0
23 -173 820 0
-23 -173 -820 0
820 323 -473 0
-820 323 473 0
820 -323 473 0
-820 -323 -473 0
323 -821 0
820 -821 0
-323 -820 821 0
173 -822 0
23 -822 0
-173 -23 822 0
-821 624 0
-822 624 0
821 822 -624 0
24 174 -823 0
-24 174 823 0
24 -174 823 0
-24 -174 -823 0
823 324 -474 0
-823 324 474 0
823 -324 474 0
-823 -324 -474 0
324 -824 0
823 -824 0
-324 -823 824 0
174 -825 0
24 -825 0
-174 -24 825 0
-824 625 0
-825 625 0
824 825 -625 0
25 175 -826 0
-25 175 826 0
25 -175 826 0
-25 -175 -826 0
826 325 -475 0
-826 325 475 0
826 -325 475 0
-826 -325 -475 0
325 -827 0
826 -827 0
-325 -826 827 0
175 -828 0
25 -828 0
-175 -25 828 0
-827 626 0
-828 626 0
827 828 -626 0
26 176 -829 0
-26 176 829 0
26 -176 829 0
-26 -176 -829 0
829 326 -476 0
-829 326 476 0
829 -326 476 0
-829 -326 -476 0
326 -830 0
829 -830 0
-326 -829 830 0
176 -831 0
26 -831 0
-176 -26 831 0
-830 627 0
-831 627 0
830 831 -627 0
27 177 -832 0
-27 177 832 0
27 -177 832 0
-27 -177 -832 0
832 327 -477 0
-832 327 477 0
832 -327 477 0
-832 -327 -477 0
327 -833 0
832 -833 0
-327 -832 833 0
177 -834 0
27 -834 0
-177 -27 834 0
-833 628 0
-834 628 0
833 834 -628 0
28 178 -835 0
-28 178 835 0
28 -178 835 0
-28 -178 -835 0
835 328 -478 0
-835 328 478 0
835 -328 478 0
-835 -328 -478 0
328 -836 0
835 -836 0
-328 -835 836 0
178 -837 0
28 -837 0
-178 -28 837 0
-836 629 0
-837 629 0
836 837 -629 0
29 179 -838 0
-29 179 838 0
29 -179 838 0
-29 -179 -838 0
838 329 -479 0
-838 329 479 0
838 -329 479 0
-838 -329 -479 0
329 -839 0
838 -839 0
-329 -838 839 0
179 -840 0
29 -840 0
-179 -29 840 0
-839 630 0
-840 630 0
839 840 -630 0
30 180 -841 0
-30 180 841 0
30 -180 841 0
-30 -180 -841 0
841 330 -480 0
-841 330 480 0
841 -330 480 0
-841 -330 -480 0
330 -842 0
841 -842 0
-330 -841 842 0
180 -843 0
30 -843 0
-180 -30 843 0
-842 631 0
-843 631 0
842 843 -631 0
31 181 -844 0
-31 181 844 0
31 -181 844 0
-31 -181 -844 0
844 331 -481 0
-844 331 481 0
844 -331 481 0
-844 -331 -481 0
331 -845 0
844 -845 0
-331 -844 845 0
181 -846 0
31 -846 0
-181 -31 846 0
-845 632 0
-846 632 0
845 846 -632 0
32 182 -847 0
-32 182 847 0
32 -182 847 0
-32 -182 -847 0
847 332 -482 0
-847 332 482 0
847 -332 482 0
-847 -332 -482 0
332 -848 0
847 -848 0
-332 -847 848 0
182 -849 0
32 -849 0
-182 -32 849 0
-848 633 0
-849 633 0
848 849 -633 0
33 183 -850 0
-33 183 850 0
33 -183 850 0
-33 -183 -850 0
850 333 -483 0
-850 333 483 0
850 -333 483 0
-850 -333 -483 0
333 -851 0
850 -851 0
-333 -850 851 0
183 -852 0
33 -852 0
-183 -33 852 0
-851 634 0
-852 634 0
851 852 -634 0
34 184 -853 0
-34 184 853 0
34 -184 853 0
-34 -184 -853 0
853 334 -484 0
-853 334 484 0
853 -334 484 0
-853 -334 -484 0
334 -854 0
853 -854 0
-334 -853 854 0
184 -855 0
34 -855 0
-184 -34 855 0
-854 635 0
-855 635 0
854 855 -635 0
35 185 -856 0
-35 185 856 0
35 -185 856 0
-35 -185 -856 0
856 335 -485 0
-856 335 485 0
856 -335 485 0
-856 -335 -485 0
335 -857 0
856 -857 0
-335 -856 857 0
185 -858 0
35 -858 0
-185 -35 858 0
-857 636 0
-858 636 0
857 858 -636 0
36 186 -859 0
-36 186 859 0
36 -186 859 0
-36 -186 -859 0
859 336 -486 0
-859 336 486 0
859 -336 486 0
-859 -336 -486 0
336 -860 0
859 -860 0
-336 -859 860 0
186 -861 0
36 -861 0
-186 -36 861 0
-860 637 0
-861 637 0
860 861 -637 0
37 187 -862 0
-37 187 862 0
37 -187 862 0
-37 -187 -862 0
862 337 -487 0
-862 337 487 0
862 -337 487 0
-862 -337 -487 0
337 -863 0
862 -863 0
-337 -862 863 0
187 -864 0
37 -864 0
-187 -37 864 0
-863 638 0
-864 638 0
863 864 -638 0
38 188 -865 0
-38 188 865 0
38 -188 865 0
-38 -188 -865 0
865 338 -488 0
-865 338 488 0
865 -338 488 0
-865 -338 -488 0
338 -866 0
865 -866 0
-338 -865 866 0
188 -867 0
38 -867 0
-188 -38 867 0
-866 639 0
-867 639 0
866 867 -639 0
39 189 -868 0
-39 189 868 0
39 -189 868 0
-39 -189 -868 0
868 339 -489 0
-868 339 489 0
868 -339 489 0
-868 -339 -489 0
339 -869 0
868 -869 0
-339 -868 869 0
189 -870 0
39 -870 0
-189 -39 870 0
-869 640 0
-870 640 0
869 870 -640 0
40 190 -871 0
-40 190 871 0
40 -190 871 0
-40 -190 -871 0
871 340 -490 0
-871 340 490 0
871 -340 490 0
-871 -340 -490 0
340 -872 0
871 -872 0
-340 -871 872 0
190 -873 0
40 -873 0
-190 -40 873 0
-872 641 0
-873 641 0
872 873 -641 0
41 191 -874 0
-41 191 874 0
41 -191 874 0
-41 -191 -874 0
874 341 -491 0
-874 341 491 0
874 -341 491 0
-874 -341 -491 0
341 -875 0
874 -875 0
-341 -874 875 0
191 -876 0
41 -876 0
-191 -41 876 0
-875 642 0
-876 642 0
875 876 -642 0
42 192 -877 0
-42 192 877 0
42 -192 877 0
-42 -192 -877 0
877 342 -492 0
-877 342 492 0
877 -342 492 0
-877 -342 -492 0
342 -878 0
877 -878 0
-342 -877 878 0
192 -879 0
42 -879 0
-192 -42 879 0
-878 643 0
-879 643 0
878 879 -643 0
43 193 -880 0
-43 193 880 0
43 -193 880 0
-43 -193 -880 0
880 343 -493 0
-880 343 493 0
880 -343 493 0
-880 -343 -493 0
343 -881 0
880 -881 0
-343 -880 881 0
193 -882 0
43 -882 0
-193 -43 882 0
-881 644 0
-882 644 0
881 882 -644 0
44 194 -883 0
-44 194 883 0
44 -194 883 0
-44 -194 -883 0
883 344 -494 0
-883 344 494 0
883 -344 494 0
-883 -344 -494 0
344 -884 0
883 -884 0
-344 -883 884 0
194 -885 0
44 -885 0
-194 -44 885 0
-884 645 0
-885 645 0
884 885 -645 0
45 195 -886 0
-45 195 886 0
45 -195 886 0
-45 -195 -886 0
886 345 -495 0
-886 345 495 0
886 -345 495 0
-886 -345 -495 0
345 -887 0
886 -887 0
-345 -886 887 0
195 -888 0
45 -888 0
-195 -45 888 0
-887 646 0
-888 646 0
887 888 -646 0
46 196 -889 0
-46 196 889 0
46 -196 889 0
-46 -196 -889 0
889 346 -496 0
-889 346 496 0
889 -346 496 0
-889 -346 -496 0
346 -890 0
889 -890 0
-346 -889 890 0
196 -891 0
46 -891 0
-196 -46 891 0
-890 647 0
-891 647 0
890 891 -647 0
47 197 -892 0
-47 197 892 0
47 -197 892 0
-47 -197 -892 0
892 347 -497 0
-892 347 497 0
892 -347 497 0
-892 -347 -497 0
347 -893 0
892 -893 0
-347 -892 893 0
197 -894 0
47 -894 0
-197 -47 894 0
-893 648 0
-894 648 0
893 894 -648 0
48 198 -895 0
-48 198 895 0
48 -198 895 0
-48 -198 -895 0
895 348 -498 0
-895 348 498 0
895 -348 498 0
-895 -348 -498 0
348 -896 0
895 -896 0
-348 -895 896 0
198 -897 0
48 -897 0
-198 -48 897 0
-896 649 0
-897 649 0
896 897 -649 0
49 199 -898 0
-49 199 898 0
49 -199 898 0
-49 -199 -898 0
898 349 -499 0
-898 349 499 0
898 -349 499 0
-898 -349 -499 0
349 -899 0
898 -899 0
-349 -898 899 0
199 -900 0
49 -900 0
-199 -49 900 0
-899 650 0
-900 650 0
899 900 -650 0
50 200 -901 0
-50 200 901 0
50 -200 901 0
-50 -200 -901 0
901 350 -500 0
-901 350 500 0
901 -350 500 0
-901 -350 -500 0
350 -902 0
901 -902 0
-350 -901 902 0
200 -903 0
50 -903 0
-200 -50 903 0
-902 651 0
-903 651 0
902 903 -651 0
51 201 -904 0
-51 201 904 0
51 -201 904 0
-51 -201 -904 0
904 351 -501 0
-904 351 501 0
904 -351 501 0
-904 -351 -501 0
351 -905 0
904 -905 0
-351 -904 905 0
201 -906 0
51 -906 0
-201 -51 906 0
-905 652 0
-906 652 0
905 906 -652 0
52 202 -907 0
-52 202 907 0
52 -202 907 0
-52 -202 -907 0
907 352 -502 0
-907 352 502 0
907 -352 502 0
-907 -352 -502 0
352 -908 0
907 -908 0
-352 -907 908 0
202 -909 0
52 -909 0
-202 -52 909 0
-908 653 0
-909 653 0
908 909 -653 0
53 203 -910 0
-53 203 910 0
53 -203 910 0
-53 -203 -910 0
910 353 -503 0
-910 353 503 0
910 -353 503 0
-910 -353 -503 0
353 -911 0
910 -911 0
-353 -910 911 0
203 -912 0
53 -912 0
-203 -53 912 0
-911 654 0
-912 654 0
911 912 -654 0
54 204 -913 0
-54 204 913 0
54 -204 913 0
-54 -204 -913 0
913 354 -504 0
-913 354 504 0
913 -354 504 0
-913 -354 -504 0
354 -914 0
913 -914 0
-354 -913 914 0
204 -915 0
54 -915 0
-204 -54 915 0
-914 655 0
-915 655 0
914 915 -655 0
55 205 -916 0
-55 205 916 0
55 -205 916 0
-55 -205 -916 0
916 355 -505 0
-916 355 505 0
916 -355 505 0
-916 -355 -505 0
355 -917 0
916 -917 0
-355 -916 917 0
205 -918 0
55 -918 0
-205 -55 918 0
-917 656 0
-918 656 0
917 918 -656 0
56 206 -919 0
-56 206 919 0
56 -206 919 0
-56 -206 -919 0
919 356 -506 0
-919 356 506 0
919 -356 506 0
-919 -356 -506 0
356 -920 0
919 -920 0
-356 -919 920 0
206 -921 0
56 -921 0
-206 -56 921 0
-920 657 0
-921 657 0
920 921 -657 0
57 207 -922 0
-57 207 922 0
57 -207 922 0
-57 -207 -922 0
922 357 -507 0
-922 357 507 0
922 -357 507 0
-922 -357 -507 0
357 -923 0
922 -923 0
-357 -922 923 0
207 -924 0
57 -924 0
-207 -57 924 0
-923 658 0
-924 658 0
923 924 -658 0
58 208 -925 0
-58 208 925 0
58 -208 925 0
-58 -208 -925 0
925 358 -508 0
-925 358 508 0
925 -358 508 0
-925 -358 -508 0
358 -926 0
925 -926 0
-358 -925 926 0
208 -927 0
58 -927 0
-208 -58 927 0
-926 659 0
-927 659 0
926 927 -659 0
59 209 -928 0
-59 209 928 0
59 -209 928 0
-59 -209 -928 0
928 359 -509 0
-928 359 509 0
928 -359 509 0
-928 -359 -509 0
359 -929 0
928 -929 0
-359 -928 929 0
209 -930 0
59 -930 0
-209 -59 930 0
-929 660 0
-930 660 0
929 930 -660 0
60 210 -931 0
-60 210 931 0
60 -210 931 0
-60 -210 -931 0
931 360 -510 0
-931 360 510 0
931 -360 510 0
-931 -360 -510 0
360 -932 0
931 -932 0
-360 -931 932 0
210 -933 0
60 -933 0
-210 -60 933 0
-932 661 0
-933 661 0
932 933 -661 0
61 211 -934 0
-61 211 934 0
61 -211 934 0
-61 -211 -934 0
934 361 -511 0
-934 361 511 0
934 -361 511 0
-934 -361 -511 0
361 -935 0
934 -935 0
-361 -934 935 0
211 -936 0
61 -936 0
-211 -61 936 0
-935 662 0
-936 662 0
935 936 -662 0
62 212 -937 0
-62 212 937 0
62 -212 937 0
-62 -212 -937 0
937 362 -512 0
-937 362 512 0
937 -362 512 0
-937 -362 -512 0
362 -938 0
937 -938 0
-362 -937 938 0
212 -939 0
62 -939 0
-212 -62 939 0
-938 663 0
-939 663 0
938 939 -663 0
63 213 -940 0
-63 213 940 0
63 -213 940 0
-63 -213 -940 0
940 363 -513 0
-940 363 513 0
940 -363 513 0
-940 -363 -513 0
363 -941 0
940 -941 0
-363 -940 941 0
213 -942 0
63 -942 0
-213 -63 942 0
-941 664 0
-942 664 0
941 942 -664 0
64 214 -943 0
-64 214 943 0
64 -214 943 0
-64 -214 -943 0
943 364 -514 0
-943 364 514 0
943 -364 514 0
-943 -364 -514 0
364 -944 0
943 -944 0
-364 -943 944 0
214 -945 0
64 -945 0
-214 -64 945 0
-944 665 0
-945 665 0
944 945 -665 0
65 215 -946 0
-65 215 946 0
65 -215 946 0
-65 -215 -946 0
946 365 -515 0
-946 365 515 0
946 -365 515 0
-946 -365 -515 0
365 -947 0
946 -947 0
-365 -946 947 0
215 -948 0
65 -948 0
-215 -65 948 0
-947 666 0
-948 666 0
947 948 -666 0
66 216 -949 0
-66 216 949 0
66 -216 949 0
-66 -216 -949 0
949 366 -516 0
-949 366 516 0
949 -366 516 0
-949 -366 -516 0
366 -950 0
949 -950 0
-366 -949 950 0
216 -951 0
66 -951 0
-216 -66 951 0
-950 667 0
-951 667 0
950 951 -667 0
67 217 -952 0
-67 217 952 0
67 -217 952 0
-67 -217 -952 0
952 367 -517 0
-952 367 517 0
952 -367 517 0
-952 -367 -517 0
367 -953 0
952 -953 0
-367 -952 953 0
217 -954 0
67 -954 0
-217 -67 954 0
-953 668 0
-954 668 0
953 954 -668 0
68 218 -955 0
-68 218 955 0
68 -218 955 0
-68 -218 -955 0
955 368 -518 0
-955 368 518 0
955 -368 518 0
-955 -368 -518 0
368 -956 0
955 -956 0
-368 -955 956 0
218 -957 0
68 -957 0
-218 -68 957 0
-956 669 0
-957 669 0
956 957 -669 0
69 219 -958 0
-69 219 958 0
69 -219 958 0
-69 -219 -958 0
958 369 -519 0
-958 369 519 0
958 -369 519 0
-958 -369 -519 0
369 -959 0
958 -959 0
-369 -958 959 0
219 -960 0
69 -960 0
-219 -69 960 0
-959 670 0
-960 670 0
959 960 -670 0
70 220 -961 0
-70 220 961 0
70 -220 961 0
-70 -220 -961 0
961 370 -520 0
-961 370 520 0
961 -370 520 0
-961 -370 -520 0
370 -962 0
961 -962 0
-370 -961 962 0
220 -963 0
70 -963 0
-220 -70 963 0
-962 671 0
-963 671 0
962 963 -671 0
71 221 -964 0
-71 221 964 0
71 -221 964 0
-71 -221 -964 0
964 371 -521 0
-964 371 521 0
964 -371 521 0
-964 -371 -521 0
371 -965 0
964 -965 0
-371 -964 965 0
221 -966 0
71 -966 0
-221 -71 966 0
-965 672 0
-966 672 0
965 966 -672 0
72 222 -967 0
-72 222 967 0
72 -222 967 0
-72 -222 -967 0
967 372 -522 0
-967 372 522 0
967 -372 522 0
-967 -372 -522 0
372 -968 0
967 -968 0
-372 -967 968 0
222 -969 0
72 -969 0
-222 -72 969 0
-968 673 0
-969 673 0
968 969 -673 0
73 223 -970 0
-73 223 970 0
73 -223 970 0
-73 -223 -970 0
970 373 -523 0
-970 373 523 0
970 -373 523 0
-970 -373 -523 0
373 -971 0
970 -971 0
-373 -970 971 0
223 -972 0
73 -972 0
-223 -73 972 0
-971 674 0
-972 674 0
971 972 -674 0
74 224 -973 0
-74 224 973 0
74 -224 973 0
-74 -224 -973 0
973 374 -524 0
-973 374 524 0
973 -374 524 0
-973 -374 -524 0
374 -974 0
973 -974 0
-374 -973 974 0
224 -975 0
74 -975 0
-224 -74 975 0
-974 675 0
-975 675 0
974 975 -675 0
75 225 -976 0
-75 225 976 0
75 -225 976 0
-75 -225 -976 0
976 375 -525 0
-976 375 525 0
976 -375 525 0
-976 -375 -525 0
375 -977 0
976 -977 0
-375 -976 977 0
225 -978 0
75 -978 0
-225 -75 978 0
-977 676 0
-978 676 0
977 978 -676 0
76 226 -979 0
-76 226 979 0
76 -226 979 0
-76 -226 -979 0
979 376 -526 0
-979 376 526 0
979 -376 526 0
-979 -376 -526 0
376 -980 0
979 -980 0
-376 -979 980 0
226 -981 0
76 -981 0
-226 -76 981 0
-980 677 0
-981 677 0
980 981 -677 0
77 227 -982 0
-77 227 982 0
77 -227 982 0
-77 -227 -982 0
982 377 -527 0
-982 377 527 0
982 -377 527 0
-982 -377 -527 0
377 -983 0
982 -983 0
-377 -982 983 0
227 -984 0
77 -984 0
-227 -77 984 0
-983 678 0
-984 678 0
983 984 -678 0
78 228 -985 0
-78 228 985 0
78 -228 985 0
-78 -228 -985 0
985 378 -528 0
-985 378 528 0
985 -378 528 0
-985 -378 -528 0
378 -986 0
985 -986 0
-378 -985 986 0
228 -987 0
78 -987 0
-228 -78 987 0
-986 679 0
-987 679 0
986 987 -679 0
79 229 -988 0
-79 229 988 0
79 -229 988 0
-79 -229 -988 0
988 379 -529 0
-988 379 529 0
988 -379 529 0
-988 -379 -529 0
379 -989 0
988 -989 0
-379 -988 989 0
229 -990 0
79 -990 0
-229 -79 990 0
-989 680 0
-990 680 0
989 990 -680 0
80 230 -991 0
-80 230 991 0
80 -230 991 0
-80 -230 -991 0
991 380 -530 0
-991 380 530 0
991 -380 530 0
-991 -380 -530 0
380 -992 0
991 -992 0
-380 -991 992 0
230 -993 0
80 -993 0
-230 -80 993 0
-992 681 0
-993 681 0
992 993 -681 0
81 231 -994 0
-81 231 994 0
81 -231 994 0
-81 -231 -994 0
994 381 -531 0
-994 381 531 0
994 -381 531 0
-994 -381 -531 0
381 -995 0
994 -995 0
-381 -994 995 0
231 -996 0
81 -996 0
-231 -81 996 0
-995 682 0
-996 682 0
995 996 -682 0
82 232 -997 0
-82 232 997 0
82 -232 997 0
-82 -232 -997 0
997 382 -532 0
-997 382 532 0
997 -382 532 0
-997 -382 -532 0
382 -998 0
997 -998 0
-382 -997 998 0
232 -999 0
82 -999 0
-232 -82 999 0
-998 683 0
-999 683 0
998 999 -683 0
83 233 -1000 0
-83 233 1000 0
83 -233 1000 0
-83 -233 -1000 0
1000 383 -533 0
-1000 383 533 0
1000 -383 533 0
-1000 -383 -533 0
383 -1001 0
1000 -1001 0
-383 -1000 1001 0
233 -1002 0
83 -1002 0
-233 -83 1002 0
-1001 684 0
-1002 684 0
1001 1002 -684 0
84 234 -1003 0
-84 234 1003 0
84 -234 1003 0
-84 -234 -1003 0
1003 384 -534 0
-1003 384 534 0
1003 -384 534 0
-1003 -384 -534 0
384 -1004 0
1003 -1004 0
-384 -1003 1004 0
234 -1005 0
84 -1005 0
-234 -84 1005 0
-1004 685 0
-1005 685 0
1004 1005 -685 0
85 235 -1006 0
-85 235 1006 0
85 -235 1006 0
-85 -235 -1006 0
1006 385 -535 0
-1006 385 535 0
1006 -385 535 0
-1006 -385 -535 0
385 -1007 0
1006 -1007 0
-385 -1006 1007 0
235 -1008 0
85 -1008 0
-235 -85 1008 0
-1007 686 0
-1008 686 0
1007 1008 -686 0
86 236 -1009 0
-86 236 1009 0
86 -236 1009 0
-86 -236 -1009 0
1009 386 -536 0
-1009 386 536 0
1009 -386 536 0
-1009 -386 -536 0
386 -1010 0
1009 -1010 0
-386 -1009 1010 0
236 -1011 0
86 -1011 0
-236 -86 1011 0
-1010 687 0
-1011 687 0
1010 1011 -687 0
87 237 -1012 0
-87 237 1012 0
87 -237 1012 0
-87 -237 -1012 0
1012 387 -537 0
-1012 387 537 0
1012 -387 537 0
-1012 -387 -537 0
387 -1013 0
1012 -1013 0
-387 -1012 1013 0
237 -1014 0
87 -1014 0
-237 -87 1014 0
-1013 688 0
-1014 688 0
1013 1014 -688 0
88 238 -1015 0
-88 238 1015 0
88 -238 1015 0
-88 -238 -1015 0
1015 388 -538 0
-1015 388 538 0
1015 -388 538 0
-1015 -388 -538 0
388 -1016 0
1015 -1016 0
-388 -1015 1016 0
238 -1017 0
88 -1017 0
-238 -88 1017 0
-1016 689 0
-1017 689 0
1016 1017 -689 0
89 239 -1018 0
-89 239 1018 0
89 -239 1018 0
-89 -239 -1018 0
1018 389 -539 0
-1018 389 539 0
1018 -389 539 0
-1018 -389 -539 0
389 -1019 0
1018 -1019 0
-389 -1018 1019 0
239 -1020 0
89 -1020 0
-239 -89 1020 0
-1019 690 0
-1020 690 0
1019 1020 -690 0
90 240 -1021 0
-90 240 1021 0
90 -240 1021 0
-90 -240 -1021 0
1021 390 -540 0
-1021 390 540 0
1021 -390 540 0
-1021 -390 -540 0
390 -1022 0
1021 -1022 0
-390 -1021 1022 0
240 -1023 0
90 -1023 0
-240 -90 1023 0
-1022 691 0
-1023 691 0
1022 1023 -691 0
91 241 -1024 0
-91 241 1024 0
91 -241 1024 0
-91 -241 -1024 0
1024 391 -541 0
-1024 391 541 0
1024 -391 541 0
-1024 -391 -541 0
391 -1025 0
1024 -1025 0
-391 -1024 1025 0
241 -1026 0
91 -1026 0
-241 -91 1026 0
-1025 692 0
-1026 692 0
1025 1026 -692 0
92 242 -1027 0
-92 242 1027 0
92 -242 1027 0
-92 -242 -1027 0
1027 392 -542 0
-1027 392 542 0
1027 -392 542 0
-1027 -392 -542 0
392 -1028 0
1027 -1028 0
-392 -1027 1028 0
242 -1029 0
92 -1029 0
-242 -92 1029 0
-1028 693 0
-1029 693 0
1028 1029 -693 0
93 243 -1030 0
-93 243 1030 0
93 -243 1030 0
-93 -243 -1030 0
1030 393 -543 0
-1030 393 543 0
1030 -393 543 0
-1030 -393 -543 0
393 -1031 0
1030 -1031 0
-393 -1030 1031 0
243 -1032 0
93 -1032 0
-243 -93 1032 0
-1031 694 0
-1032 694 0
1031 1032 -694 0
94 244 -1033 0
-94 244 1033 0
94 -244 1033 0
-94 -244 -1033 0
1033 394 -544 0
-1033 394 544 0
1033 -394 544 0
-1033 -394 -544 0
394 -1034 0
1033 -1034 0
-394 -1033 1034 0
244 -1035 0
94 -1035 0
-244 -94 1035 0
-1034 695 0
-1035 695 0
1034 1035 -695 0
95 245 -1036 0
-95 245 1036 0
95 -245 1036 0
-95 -245 -1036 0
1036 395 -545 0
-1036 395 545 0
1036 -395 545 0
-1036 -395 -545 0
395 -1037 0
1036 -1037 0
-395 -1036 1037 0
245 -1038 0
95 -1038 0
-245 -95 1038 0
-1037 696 0
-1038 696 0
1037 1038 -696 0
96 246 -1039 0
-96 246 1039 0
96 -246 1039 0
-96 -246 -1039 0
1039 396 -546 0
-1039 396 546 0
1039 -396 546 0
-1039 -396 -546 0
396 -1040 0
1039 -1040 0
-396 -1039 1040 0
246 -1041 0
96 -1041 0
-246 -96 1041 0
-1040 697 0
-1041 697 0
1040 1041 -697 0
97 247 -1042 0
-97 247 1042 0
97 -247 1042 0
-97 -247 -1042 0
1042 397 -547 0
-1042 397 547 0
1042 -397 547 0
-1042 -397 -547 0
397 -1043 0
1042 -1043 0
-397 -1042 1043 0
247 -1044 0
97 -1044 0
-247 -97 1044 0
-1043 698 0
-1044 698 0
1043 1044 -698 0
98 248 -1045 0
-98 248 1045 0
98 -248 1045 0
-98 -248 -1045 0
1045 398 -548 0
-1045 398 548 0
1045 -398 548 0
-1045 -398 -548 0
398 -1046 0
1045 -1046 0
-398 -1045 1046 0
248 -1047 0
98 -1047 0
-248 -98 1047 0
-1046 699 0
-1047 699 0
1046 1047 -699 0
99 249 -1048 0
-99 249 1048 0
99 -249 1048 0
-99 -249 -1048 0
1048 399 -549 0
-1048 399 549 0
1048 -399 549 0
-1048 -399 -549 0
399 -1049 0
1048 -1049 0
-399 -1048 1049 0
249 -1050 0
99 -1050 0
-249 -99 1050 0
-1049 700 0
-1050 700 0
1049 1050 -700 0
100 250 -1051 0
-100 250 1051 0
100 -250 1051 0
-100 -250 -1051 0
1051 400 -550 0
-1051 400 550 0
1051 -400 550 0
-1051 -400 -550 0
400 -1052 0
1051 -1052 0
-400 -1051 1052 0
250 -1053 0
100 -1053 0
-250 -100 1053 0
-1052 701 0
-1053 701 0
1052 1053 -701 0
101 251 -1054 0
-101 251 1054 0
101 -251 1054 0
-101 -251 -1054 0
1054 401 -551 0
-1054 401 551 0
1054 -401 551 0
-1054 -401 -551 0
401 -1055 0
1054 -1055 0
-401 -1054 1055 0
251 -1056 0
101 -1056 0
-251 -101 1056 0
-1055 702 0
-1056 702 0
1055 1056 -702 0
102 252 -1057 0
-102 252 1057 0
102 -252 1057 0
-102 -252 -1057 0
1057 402 -552 0
-1057 402 552 0
1057 -402 552 0
-1057 -402 -552 0
402 -1058 0
1057 -1058 0
-402 -1057 1058 0
252 -1059 0
102 -1059 0
-252 -102 1059 0
-1058 703 0
-1059 703 0
1058 1059 -703 0
103 253 -1060 0
-103 253 1060 0
103 -253 1060 0
-103 -253 -1060 0
1060 403 -553 0
-1060 403 553 0
1060 -403 553 0
-1060 -403 -553 0
403 -1061 0
1060 -1061 0
-403 -1060 1061 0
253 -1062 0
103 -1062 0
-253 -103 1062 0
-1061 704 0
-1062 704 0
1061 1062 -704 0
104 254 -1063 0
-104 254 1063 0
104 -254 1063 0
-104 -254 -1063 0
1063 404 -554 0
-1063 404 554 0
1063 -404 554 0
-1063 -404 -554 0
404 -1064 0
1063 -1064 0
-404 -1063 1064 0
254 -1065 0
104 -1065 0
-254 -104 1065 0
-1064 705 0
-1065 705 0
1064 1065 -705 0
105 255 -1066 0
-105 255 1066 0
105 -255 1066 0
-105 -255 -1066 0
1066 405 -555 0
-1066 405 555 0
1066 -405 555 0
-1066 -405 -555 0
405 -1067 0
1066 -1067 0
-405 -1066 1067 0
255 -1068 0
105 -1068 0
-255 -105 1068 0
-1067 706 0
-1068 706 0
1067 1068 -706 0
106 256 -1069 0
-106 256 1069 0
106 -256 1069 0
-106 -256 -1069 0
1069 406 -556 0
-1069 406 556 0
1069 -406 556 0
-1069 -406 -556 0
406 -1070 0
1069 -1070 0
-406 -1069 1070 0
256 -1071 0
106 -1071 0
-256 -106 1071 0
-1070 707 0
-1071 707 0
1070 1071 -707 0
107 257 -1072 0
-107 257 1072 0
107 -257 1072 0
-107 -257 -1072 0
1072 407 -557 0
-1072 407 557 0
1072 -407 557 0
-1072 -407 -557 0
407 -1073 0
1072 -1073 0
-407 -1072 1073 0
257 -1074 0
107 -1074 0
-257 -107 1074 0
-1073 708 0
-1074 708 0
1073 1074 -708 0
108 258 -1075 0
-108 258 1075 0
108 -258 1075 0
-108 -258 -1075 0
1075 408 -558 0
-1075 408 558 0
1075 -408 558 0
-1075 -408 -558 0
408 -1076 0
1075 -1076 0
-408 -1075 1076 0
258 -1077 0
108 -1077 0
-258 -108 1077 0
-1076 709 0
-1077 709 0
1076 1077 -709 0
109 259 -1078 0
-109 259 1078 0
109 -259 1078 0
-109 -259 -1078 0
1078 409 -559 0
-1078 409 559 0
1078 -409 559 0
-1078 -409 -559 0
409 -1079 0
1078 -1079 0
-409 -1078 1079 0
259 -1080 0
109 -1080 0
-259 -109 1080 0
-1079 710 0
-1080 710 0
1079 1080 -710 0
110 260 -1081 0
-110 260 1081 0
110 -260 1081 0
-110 -260 -1081 0
1081 410 -560 0
-1081 410 560 0
1081 -410 560 0
-1081 -410 -560 0
410 -1082 0
1081 -1082 0
-410 -1081 1082 0
260 -1083 0
110 -1083 0
-260 -110 1083 0
-1082 711 0
-1083 711 0
1082 1083 -711 0
111 261 -1084 0
-111 261 1084 0
111 -261 1084 0
-111 -261 -1084 0
1084 411 -561 0
-1084 411 561 0
1084 -411 561 0
-1084 -411 -561 0
411 -1085 0
1084 -1085 0
-411 -1084 1085 0
261 -1086 0
111 -1086 0
-261 -111 1086 0
-1085 712 0
-1086 712 0
1085 1086 -712 0
112 262 -1087 0
-112 262 1087 0
112 -262 1087 0
-112 -262 -1087 0
1087 412 -562 0
-1087 412 562 0
1087 -412 562 0
-1087 -412 -562 0
412 -1088 0
1087 -1088 0
-412 -1087 1088 0
262 -1089 0
112 -1089 0
-262 -112 1089 0
-1088 713 0
-1089 713 0
1088 1089 -713 0
113 263 -1090 0
-113 263 1090 0
113 -263 1090 0
-113 -263 -1090 0
1090 413 -563 0
-1090 413 563 0
1090 -413 563 0
-1090 -413 -563 0
413 -1091 0
1090 -1091 0
-413 -1090 1091 0
263 -1092 0
113 -1092 0
-263 -113 1092 0
-1091 714 0
-1092 714 0
1091 1092 -714 0
114 264 -1093 0
-114 264 1093 0
114 -264 1093 0
-114 -264 -1093 0
1093 414 -564 0
-1093 414 564 0
1093 -414 564 0
-1093 -414 -564 0
414 -1094 0
1093 -1094 0
-414 -1093 1094 0
264 -1095 0
114 -1095 0
-264 -114 1095 0
-1094 715 0
-1095 715 0
1094 1095 -715 0
115 265 -1096 0
-115 265 1096 0
115 -265 1096 0
-115 -265 -1096 0
1096 415 -565 0
-1096 415 565 0
1096 -415 565 0
-1096 -415 -565 0
415 -1097 0
1096 -1097 0
-415 -1096 1097 0
265 -1098 0
115 -1098 0
-265 -115 1098 0
-1097 716 0
-1098 716 0
1097 1098 -716 0
116 266 -1099 0
-116 266 1099 0
116 -266 1099 0
-116 -266 -1099 0
1099 416 -566 0
-1099 416 566 0
1099 -416 566 0
-1099 -416 -566 0
416 -1100 0
1099 -1100 0
-416 -1099 1100 0
266 -1101 0
116 -1101 0
-266 -116 1101 0
-1100 717 0
-1101 717 0
1100 1101 -717 0
117 267 -1102 0
-117 267 1102 0
117 -267 1102 0
-117 -267 -1102 0
1102 417 -567 0
-1102 417 567 0
1102 -417 567 0
-1102 -417 -567 0
417 -1103 0
1102 -1103 0
-417 -1102 1103 0
267 -1104 0
117 -1104 0
-267 -117 1104 0
-1103 718 0
-1104 718 0
1103 1104 -718 0
118 268 -1105 0
-118 268 1105 0
118 -268 1105 0
-118 -268 -1105 0
1105 418 -568 0
-1105 418 568 0
1105 -418 568 0
-1105 -418 -568 0
418 -1106 0
1105 -1106 0
-418 -1105 1106 0
268 -1107 0
118 -1107 0
-268 -118 1107 0
-1106 719 0
-1107 719 0
1106 1107 -719 0
119 269 -1108 0
-119 269 1108 0
119 -269 1108 0
-119 -269 -1108 0
1108 419 -569 0
-1108 419 569 0
1108 -419 569 0
-1108 -419 -569 0
419 -1109 0
1108 -1109 0
-419 -1108 1109 0
269 -1110 0
119 -1110 0
-269 -119 1110 0
-1109 720 0
-1110 720 0
1109 1110 -720 0
120 270 -1111 0
-120 270 1111 0
120 -270 1111 0
-120 -270 -1111 0
1111 420 -570 0
-1111 420 570 0
1111 -420 570 0
-1111 -420 -570 0
420 -1112 0
1111 -1112 0
-420 -1111 1112 0
270 -1113 0
120 -1113 0
-270 -120 1113 0
-1112 721 0
-1113 721 0
1112 1113 -721 0
121 271 -1114 0
-121 271 1114 0
121 -271 1114 0
-121 -271 -1114 0
1114 421 -571 0
-1114 421 571 0
1114 -421 571 0
-1114 -421 -571 0
421 -1115 0
1114 -1115 0
-421 -1114 1115 0
271 -1116 0
121 -1116 0
-271 -121 1116 0
-1115 722 0
-1116 722 0
1115 1116 -722 0
122 272 -1117 0
-122 272 1117 0
122 -272 1117 0
-122 -272 -1117 0
1117 422 -572 0
-1117 422 572 0
1117 -422 572 0
-1117 -422 -572 0
422 -1118 0
1117 -1118 0
-422 -1117 1118 0
272 -1119 0
122 -1119 0
-272 -122 1119 0
-1118 723 0
-1119 723 0
1118 1119 -723 0
123 273 -1120 0
-123 273 1120 0
123 -273 1120 0
-123 -273 -1120 0
1120 423 -573 0
-1120 423 573 0
1120 -423 573 0
-1120 -423 -573 0
423 -1121 0
1120 -1121 0
-423 -1120 1121 0
273 -1122 0
123 -1122 0
-273 -123 1122 0
-1121 724 0
-1122 724 0
1121 1122 -724 0
124 274 -1123 0
-124 274 1123 0
124 -274 1123 0
-124 -274 -1123 0
1123 424 -574 0
-1123 424 574 0
1123 -424 574 0
-1123 -424 -574 0
424 -1124 0
1123 -1124 0
-424 -1123 1124 0
274 -1125 0
124 -1125 0
-274 -124 1125 0
-1124 725 0
-1125 725 0
1124 1125 -725 0
125 275 -1126 0
-125 275 1126 0
125 -275 1126 0
-125 -275 -1126 0
1126 425 -575 0
-1126 425 575 0
1126 -425 575 0
-1126 -425 -575 0
425 -1127 0
1126 -1127 0
-425 -1126 1127 0
275 -1128 0
125 -1128 0
-275 -125 1128 0
-1127 726 0
-1128 726 0
1127 1128 -726 0
126 276 -1129 0
-126 276 1129 0
126 -276 1129 0
-126 -276 -1129 0
1129 426 -576 0
-1129 426 576 0
1129 -426 576 0
-1129 -426 -576 0
426 -1130 0
1129 -1130 0
-426 -1129 1130 0
276 -1131 0
126 -1131 0
-276 -126 1131 0
-1130 727 0
-1131 727 0
1130 1131 -727 0
127 277 -1132 0
-127 277 1132 0
127 -277 1132 0
-127 -277 -1132 0
1132 427 -577 0
-1132 427 577 0
1132 -427 577 0
-1132 -427 -577 0
427 -1133 0
1132 -1133 0
-427 -1132 1133 0
277 -1134 0
127 -1134 0
-277 -127 1134 0
-1133 728 0
-1134 728 0
1133 1134 -728 0
128 278 -1135 0
-128 278 1135 0
128 -278 1135 0
-128 -278 -1135 0
1135 428 -578 0
-1135 428 578 0
1135 -428 578 0
-1135 -428 -578 0
428 -1136 0
1135 -1136 0
-428 -1135 1136 0
278 -1137 0
128 -1137 0
-278 -128 1137 0
-1136 729 0
-1137 729 0
1136 1137 -729 0
129 279 -1138 0
-129 279 1138 0
129 -279 1138 0
-129 -279 -1138 0
1138 429 -579 0
-1138 429 579 0
1138 -429 579 0
-1138 -429 -579 0
429 -1139 0
1138 -1139 0
-429 -1138 1139 0
279 -1140 0
129 -1140 0
-279 -129 1140 0
-1139 730 0
-1140 730 0
1139 1140 -730 0
130 280 -1141 0
-130 280 1141 0
130 -280 1141 0
-130 -280 -1141 0
1141 430 -580 0
-1141 430 580 0
1141 -430 580 0
-1141 -430 -580 0
430 -1142 0
1141 -1142 0
-430 -1141 1142 0
280 -1143 0
130 -1143 0
-280 -130 1143 0
-1142 731 0
-1143 731 0
1142 1143 -731 0
131 281 -1144 0
-131 281 1144 0
131 -281 1144 0
-131 -281 -1144 0
1144 431 -581 0
-1144 431 581 0
1144 -431 581 0
-1144 -431 -581 0
431 -1145 0
1144 -1145 0
-431 -1144 1145 0
281 -1146 0
131 -1146 0
-281 -131 1146 0
-1145 732 0
-1146 732 0
1145 1146 -732 0
132 282 -1147 0
-132 282 1147 0
132 -282 1147 0
-132 -282 -1147 0
1147 432 -582 0
-1147 432 582 0
1147 -432 582 0
-1147 -432 -582 0
432 -1148 0
1147 -1148 0
-432 -1147 1148 0
282 -1149 0
132 -1149 0
-282 -132 1149 0
-1148 733 0
-1149 733 0
1148 1149 -733 0
133 283 -1150 0
-133 283 1150 0
133 -283 1150 0
-133 -283 -1150 0
1150 433 -583 0
-1150 433 583 0
1150 -433 583 0
-1150 -433 -583 0
433 -1151 0
1150 -1151 0
-433 -1150 1151 0
283 -1152 0
133 -1152 0
-283 -133 1152 0
-1151 734 0
-1152 734 0
1151 1152 -734 0
134 284 -1153 0
-134 284 1153 0
134 -284 1153 0
-134 -284 -1153 0
1153 434 -584 0
-1153 434 584 0
1153 -434 584 0
-1153 -434 -584 0
434 -1154 0
1153 -1154 0
-434 -1153 1154 0
284 -1155 0
134 -1155 0
-284 -134 1155 0
-1154 735 0
-1155 735 0
1154 1155 -735 0
135 285 -1156 0
-135 285 1156 0
135 -285 1156 0
-135 -285 -1156 0
1156 435 -585 0
-1156 435 585 0
1156 -435 585 0
-1156 -435 -585 0
435 -1157 0
1156 -1157 0
-435 -1156 1157 0
285 -1158 0
135 -1158 0
-285 -135 1158 0
-1157 736 0
-1158 736 0
1157 1158 -736 0
136 286 -1159 0
-136 286 1159 0
136 -286 1159 0
-136 -286 -1159 0
1159 436 -586 0
-1159 436 586 0
1159 -436 586 0
-1159 -436 -586 0
436 -1160 0
1159 -1160 0
-436 -1159 1160 0
286 -1161 0
136 -1161 0
-286 -136 1161 0
-1160 737 0
-1161 737 0
1160 1161 -737 0
137 287 -1162 0
-137 287 1162 0
137 -287 1162 0
-137 -287 -1162 0
1162 437 -587 0
-1162 437 587 0
1162 -437 587 0
-1162 -437 -587 0
437 -1163 0
1162 -1163 0
-437 -1162 1163 0
287 -1164 0
137 -1164 0
-287 -137 1164 0
-1163 738 0
-1164 738 0
1163 1164 -738 0
138 288 -1165 0
-138 288 1165 0
138 -288 1165 0
-138 -288 -1165 0
1165 438 -588 0
-1165 438 588 0
1165 -438 588 0
-1165 -438 -588 0
438 -1166 0
1165 -1166 0
-438 -1165 1166 0
288 -1167 0
138 -1167 0
-288 -138 1167 0
-1166 739 0
-1167 739 0
1166 1167 -739 0
139 289 -1168 0
-139 289 1168 0
139 -289 1168 0
-139 -289 -1168 0
1168 439 -589 0
-1168 439 589 0
1168 -439 589 0
-1168 -439 -589 0
439 -1169 0
1168 -1169 0
-439 -1168 1169 0
289 -1170 0
139 -1170 0
-289 -139 1170 0
-1169 740 0
-1170 740 0
1169 1170 -740 0
140 290 -1171 0
-140 290 1171 0
140 -290 1171 0
-140 -290 -1171 0
1171 440 -590 0
-1171 440 590 0
1171 -440 590 0
-1171 -440 -590 0
440 -1172 0
1171 -1172 0
-440 -1171 1172 0
290 -1173 0
140 -1173 0
-290 -140 1173 0
-1172 741 0
-1173 741 0
1172 1173 -741 0
141 291 -1174 0
-141 291 1174 0
141 -291 1174 0
-141 -291 -1174 0
1174 441 -591 0
-1174 441 591 0
1174 -441 591 0
-1174 -441 -591 0
441 -1175 0
1174 -1175 0
-441 -1174 1175 0
291 -1176 0
141 -1176 0
-291 -141 1176 0
-1175 742 0
-1176 742 0
1175 1176 -742 0
142 292 -1177 0
-142 292 1177 0
142 -292 1177 0
-142 -292 -1177 0
1177 442 -592 0
-1177 442 592 0
1177 -442 592 0
-1177 -442 -592 0
442 -1178 0
1177 -1178 0
-442 -1177 1178 0
292 -1179 0
142 -1179 0
-292 -142 1179 0
-1178 743 0
-1179 743 0
1178 1179 -743 0
143 293 -1180 0
-143 293 1180 0
143 -293 1180 0
-143 -293 -1180 0
1180 443 -593 0
-1180 443 593 0
1180 -443 593 0
-1180 -443 -593 0
443 -1181 0
1180 -1181 0
-443 -1180 1181 0
293 -1182 0
143 -1182 0
-293 -143 1182 0
-1181 744 0
-1182 744 0
1181 1182 -744 0
144 294 -1183 0
-144 294 1183 0
144 -294 1183 0
-144 -294 -1183 0
1183 444 -594 0
-1183 444 594 0
1183 -444 594 0
-1183 -444 -594 0
444 -1184 0
1183 -1184 0
-444 -1183 1184 0
294 -1185 0
144 -1185 0
-294 -144 1185 0
-1184 745 0
-1185 745 0
1184 1185 -745 0
145 295 -1186 0
-145 295 1186 0
145 -295 1186 0
-145 -295 -1186 0
1186 445 -595 0
-1186 445 595 0
1186 -445 595 0
-1186 -445 -595 0
445 -1187 0
1186 -1187 0
-445 -1186 1187 0
295 -1188 0
145 -1188 0
-295 -145 1188 0
-1187 746 0
-1188 746 0
1187 1188 -746 0
146 296 -1189 0
-146 296 1189 0
146 -296 1189 0
-146 -296 -1189 0
1189 446 -596 0
-1189 446 596 0
1189 -446 596 0
-1189 -446 -596 0
446 -1190 0
1189 -1190 0
-446 -1189 1190 0
296 -1191 0
146 -1191 0
-296 -146 1191 0
-1190 747 0
-1191 747 0
1190 1191 -747 0
147 297 -1192 0
-147 297 1192 0
147 -297 1192 0
-147 -297 -1192 0
1192 447 -597 0
-1192 447 597 0
1192 -447 597 0
-1192 -447 -597 0
447 -1193 0
1192 -1193 0
-447 -1192 1193 0
297 -1194 0
147 -1194 0
-297 -147 1194 0
-1193 748 0
-1194 748 0
1193 1194 -748 0
148 298 -1195 0
-148 298 1195 0
148 -298 1195 0
-148 -298 -1195 0
1195 448 -598 0
-1195 448 598 0
1195 -448 598 0
-1195 -448 -598 0
448 -1196 0
1195 -1196 0
-448 -1195 1196 0
298 -1197 0
148 -1197 0
-298 -148 1197 0
-1196 749 0
-1197 749 0
1196 1197 -749 0
149 299 -1198 0
-149 299 1198 0
149 -299 1198 0
-149 -299 -1198 0
1198 449 -599 0
-1198 449 599 0
1198 -449 599 0
-1198 -449 -599 0
449 -1199 0
1198 -1199 0
-449 -1198 1199 0
299 -1200 0
149 -1200 0
-299 -149 1200 0
-1199 750 0
-1200 750 0
1199 1200 -750 0
150 300 -1201 0
-150 300 1201 0
150 -300 1201 0
-150 -300 -1201 0
1201 450 -600 0
-1201 450 600 0
1201 -450 600 0
-1201 -450 -600 0
450 -1202 0
1201 -1202 0
-450 -1201 1202 0
300 -1203 0
150 -1203 0
-300 -150 1203 0
-1202 751 0
-1203 751 0
1202 1203 -751 0
